
Gurobi 9.1.2 (linux64, gurobi_cl) logging started Fri Jul 30 13:55:14 2021

Using license file /opt/gurobi/gurobi.lic
Set parameter TimeLimit to value 600
Set parameter Heuristics to value 0.1
Set parameter Cuts to value 2
Set parameter LogFile to value 912-Cuts2-Heuristics0.1-glass4-2.log
Set parameter Seed to value 2

Gurobi Optimizer version 9.1.2 build v9.1.2rc0 (linux64)
Copyright (c) 2021, Gurobi Optimization, LLC

Read MPS format model from file /nfs/models/mip/glass4.mps.bz2
Reading time = 0.01 seconds
glass4: 396 rows, 322 columns, 1815 nonzeros
Thread count: 4 physical cores, 8 logical processors, using up to 8 threads
Optimize a model with 396 rows, 322 columns and 1815 nonzeros
Model fingerprint: 0x0a9d9037
Variable types: 20 continuous, 302 integer (0 binary)
Coefficient statistics:
  Matrix range     [1e+00, 8e+06]
  Objective range  [1e+00, 1e+06]
  Bounds range     [1e+00, 8e+02]
  RHS range        [1e+00, 8e+06]
Presolve removed 6 rows and 6 columns
Presolve time: 0.00s
Presolved: 390 rows, 316 columns, 1803 nonzeros
Variable types: 19 continuous, 297 integer (297 binary)
Found heuristic solution: objective 3.133356e+09

Root relaxation: objective 8.000024e+08, 72 iterations, 0.00 seconds

    Nodes    |    Current Node    |     Objective Bounds      |     Work
 Expl Unexpl |  Obj  Depth IntInf | Incumbent    BestBd   Gap | It/Node Time

     0     0 8.0000e+08    0   72 3.1334e+09 8.0000e+08  74.5%     -    0s
H    0     0                    2.150017e+09 8.0000e+08  62.8%     -    0s
H    0     0                    2.100017e+09 8.0000e+08  61.9%     -    0s
     0     0 8.0000e+08    0   72 2.1000e+09 8.0000e+08  61.9%     -    0s
     0     0 8.0000e+08    0   72 2.1000e+09 8.0000e+08  61.9%     -    0s
H    0     0                    2.100017e+09 8.0000e+08  61.9%     -    0s
H    0     0                    2.100016e+09 8.0000e+08  61.9%     -    0s
     0     2 8.0000e+08    0   72 2.1000e+09 8.0000e+08  61.9%     -    0s
H  236   312                    2.050017e+09 8.0000e+08  61.0%   9.3    0s
H  335   356                    1.950017e+09 8.0000e+08  59.0%   7.9    0s
H  347   356                    1.850016e+09 8.0000e+08  56.8%   7.8    0s
H  533   459                    1.800015e+09 8.0000e+08  55.6%   9.0    0s
H 1333   991                    1.700014e+09 8.0001e+08  52.9%  15.9    2s
H 1583  1022                    1.700014e+09 8.0001e+08  52.9%  17.4    3s
  3761  1919 1.0000e+09   25   72 1.7000e+09 8.0946e+08  52.4%  25.3    5s
*16030  9041              63    1.650019e+09 9.0000e+08  45.5%  22.9    9s
 18046 10434 1.6000e+09   51   12 1.6500e+09 9.0000e+08  45.5%  24.0   10s
*19358 10675              55    1.633352e+09 9.0001e+08  44.9%  24.5   10s
H19884 11158                    1.633350e+09 9.0001e+08  44.9%  24.6   10s
H19887 11155                    1.633350e+09 9.0001e+08  44.9%  24.6   10s
H21080 12234                    1.620016e+09 9.0001e+08  44.4%  24.7   11s
H21083 12234                    1.620016e+09 9.0001e+08  44.4%  24.7   11s
*21086 12071              84    1.600016e+09 9.0001e+08  43.8%  24.7   11s
*22731 12329              60    1.600015e+09 9.0001e+08  43.8%  24.3   11s
H31722 16653                    1.600014e+09 9.2026e+08  42.5%  25.1   14s
H32908 16761                    1.600014e+09 9.3438e+08  41.6%  25.2   14s
 33895 18064 1.0000e+09   28   73 1.6000e+09 9.5001e+08  40.6%  25.2   15s
H34427 13959                    1.500012e+09 9.5001e+08  36.7%  25.1   15s
H39977  4849                    1.200013e+09 1.0000e+09  16.7%  26.5   17s

Cutting planes:
  Gomory: 138
  Cover: 201
  Implied bound: 138
  Projected implied bound: 12
  MIR: 75
  Flow cover: 664
  GUB cover: 1
  Inf proof: 21
  RLT: 73
  Relax-and-lift: 281

Explored 44472 nodes (1164074 simplex iterations) in 18.22 seconds
Thread count was 8 (of 8 available processors)

Solution count 10: 1.20001e+09 1.50001e+09 1.60001e+09 ... 1.63335e+09

Optimal solution found (tolerance 1.00e-04)
Best objective 1.200012600000e+09, best bound 1.200003400000e+09, gap 0.0008%
